/*********************************************
 * OPL 12.6.0.0 Data
 * Author: Comoria
 * Creation Date: 25 nov. 2015 at 18:54:54
 *********************************************/
Nbmorceaux = 9;
Nom = {"Joueur1","Joueur2","Joueur3","Joueur4","Joueur5"};
Duration = [2,4,1,3,3,2,5,7,6];
Jouer = #[ "Joueur1" : {1,2,4,6,7,9},
		   "Joueur2" : {1,2,4,5,6,8},
		   "Joueur3" : {1,2,7,8},
		   "Joueur4" : {1,5,6,9},
		   "Joueur5" : {3,5,6,7,8}]#;